p cnf 22 10
a 1 2 0
e 3 0
a 4 5 0
e 6 0
a 7 8 0
e 9 0
a 10 0
e 11 12 0
a 13 0
e 14 0
a 15 0
e 16 17 0
a 18 0
e 19 0
a 20 0
e 21 22 0
20 -4 9 -12 2 0
12 18 7 -2 0
10 5 15 -20 0
20 8 12 0
11 13 22 -4 -5 0
-15 19 -5 -3 10 0
-15 21 4 -22 2 0
17 -3 -11 -9 -21 0
7 19 17 13 8 0
13 -4 15 -21 0
